142451
5 7 14 18 59 47 44 46 55 64 56 54 42 26 27 29 16 119 131 130 17 30 67 62 63 50 38 39 51 49 37 40 61 41 31 36 48 52 60 66 53 32 10 11 22 23 35 43 58 65 57 45 34 33 21 12 0 89 80 71 79 78 100 19 25 24 20 13 8 9 1 123 114 102 101 90 91 112 113 135 124 125 115 122 134 126 127 110 111 103 92 88 81 70 77 76 93 82 117 121 133 2 116 99 87 83 69 75 68 73 72 85 97 96 84 86 98 95 74 94 104 109 128 129 108 105 106 107 118 120 132 3 6 15 28 4 
